Grasp exp. instance_n_20_m_5_id_2.lp tipoLifted 0 szPool 5 nIteration 20 alpha 0.8 
Academic license - for non-commercial use only
Read LP format model from file ../input/instancesGenerated/instance_n_20_m_5_id_2.lp
Reading time = 0.00 seconds
: 5 rows, 20 columns, 100 nonzeros
Optimize a model with 5 rows, 20 columns and 100 nonzeros
Variable types: 0 continuous, 20 integer (20 binary)
Coefficient statistics:
  Matrix range     [1e+00, 1e+01]
  Objective range  [1e+00, 1e+01]
  Bounds range     [1e+00, 1e+00]
  RHS range        [5e+01, 6e+01]
Found heuristic solution: objective 68.0000000

Explored 0 nodes (0 simplex iterations) in 0.00 seconds
Thread count was 1 (of 8 available processors)

Solution count 1: 68 
No other solutions better than 0

Solution limit reached
Best objective 6.800000000000e+01, best bound -, gap -
C_1:	 4.00 x_1  = 1.000000 + 9.00 x_2  = 0.000000 + 5.00 x_3  = 1.000000 + 10.00 x_4  = 0.000000 + 5.00 x_5  = 0.000000 + 4.00 x_6  = 1.000000 + 4.00 x_7  = 1.000000 + 2.00 x_8  = 1.000000 + 3.00 x_9  = 0.308131 + 1.00 x_10  = 0.196862 + 7.00 x_11  = 1.000000 + 4.00 x_12  = 1.000000 + 10.00 x_13  = 0.299572 + 6.00 x_14  = 0.000000 + 1.00 x_15  = 0.883024 + 10.00 x_16  = 1.000000 + 6.00 x_17  = 1.000000 + 9.00 x_18  = 0.000000 + 1.00 x_19  = 0.000000 + 2.00 x_20  = 0.000000 <= 51.00
C_2:	 6.00 x_1  = 1.000000 + 10.00 x_2  = 0.000000 + 10.00 x_3  = 1.000000 + 6.00 x_4  = 0.000000 + 8.00 x_5  = 0.000000 + 3.00 x_6  = 1.000000 + 6.00 x_7  = 1.000000 + 3.00 x_8  = 1.000000 + 6.00 x_9  = 0.308131 + 10.00 x_10  = 0.196862 + 7.00 x_11  = 1.000000 + 9.00 x_12  = 1.000000 + 1.00 x_13  = 0.299572 + 2.00 x_14  = 0.000000 + 1.00 x_15  = 0.883024 + 7.00 x_16  = 1.000000 + 7.00 x_17  = 1.000000 + 6.00 x_18  = 0.000000 + 9.00 x_19  = 0.000000 + 9.00 x_20  = 0.000000 <= 63.00
C_3:	 6.00 x_1  = 1.000000 + 7.00 x_2  = 0.000000 + 2.00 x_3  = 1.000000 + 5.00 x_4  = 0.000000 + 2.00 x_5  = 0.000000 + 4.00 x_6  = 1.000000 + 6.00 x_7  = 1.000000 + 9.00 x_8  = 1.000000 + 5.00 x_9  = 0.308131 + 6.00 x_10  = 0.196862 + 10.00 x_11  = 1.000000 + 2.00 x_12  = 1.000000 + 7.00 x_13  = 0.299572 + 9.00 x_14  = 0.000000 + 7.00 x_15  = 0.883024 + 4.00 x_16  = 1.000000 + 3.00 x_17  = 1.000000 + 3.00 x_18  = 0.000000 + 8.00 x_19  = 0.000000 + 9.00 x_20  = 0.000000 <= 57.00
C_4:	 4.00 x_1  = 1.000000 + 5.00 x_2  = 0.000000 + 9.00 x_3  = 1.000000 + 6.00 x_4  = 0.000000 + 8.00 x_5  = 0.000000 + 9.00 x_6  = 1.000000 + 3.00 x_7  = 1.000000 + 4.00 x_8  = 1.000000 + 4.00 x_9  = 0.308131 + 3.00 x_10  = 0.196862 + 4.00 x_11  = 1.000000 + 2.00 x_12  = 1.000000 + 9.00 x_13  = 0.299572 + 7.00 x_14  = 0.000000 + 8.00 x_15  = 0.883024 + 2.00 x_16  = 1.000000 + 2.00 x_17  = 1.000000 + 4.00 x_18  = 0.000000 + 1.00 x_19  = 0.000000 + 8.00 x_20  = 0.000000 <= 51.00
C_5:	 9.00 x_1  = 1.000000 + 2.00 x_2  = 0.000000 + 9.00 x_3  = 1.000000 + 6.00 x_4  = 0.000000 + 3.00 x_5  = 0.000000 + 6.00 x_6  = 1.000000 + 1.00 x_7  = 1.000000 + 5.00 x_8  = 1.000000 + 10.00 x_9  = 0.308131 + 9.00 x_10  = 0.196862 + 5.00 x_11  = 1.000000 + 5.00 x_12  = 1.000000 + 5.00 x_13  = 0.299572 + 4.00 x_14  = 0.000000 + 3.00 x_15  = 0.883024 + 2.00 x_16  = 1.000000 + 2.00 x_17  = 1.000000 + 5.00 x_18  = 0.000000 + 7.00 x_19  = 0.000000 + 8.00 x_20  = 0.000000 <= 53.00
Solution initial: 87.753210 
Number Constraints Used in Cover:5
GRASP Method!
Number cuts repeat: 0
value: 87.753210
Number Constraints Used in Cover:13
GRASP Method!
Number cuts repeat: 0
value: 87.753210
Number Constraints Used in Cover:22
GRASP Method!
Number cuts repeat: 0
value: 87.753210
Number Constraints Used in Cover:30
GRASP Method!
Number cuts repeat: 0
value: 87.725702
Number Constraints Used in Cover:37
GRASP Method!
Number cuts repeat: 0
value: 87.725702
Number Constraints Used in Cover:48
GRASP Method!
Number cuts repeat: 0
value: 87.725702
Number Constraints Used in Cover:57
GRASP Method!
Number cuts repeat: 0
value: 87.725702
Number Constraints Used in Cover:67
GRASP Method!
Number cuts repeat: 0
value: 87.725702
Number Constraints Used in Cover:77
GRASP Method!
Number cuts repeat: 0
value: 87.725702
Number Constraints Used in Cover:85
GRASP Method!
Number cuts repeat: 0
value: 87.725702
Number Constraints Used in Cover:98
GRASP Method!
Number cuts repeat: 0
value: 87.725702
Number Constraints Used in Cover:106
GRASP Method!
Number cuts repeat: 0
value: 87.725702
Number Constraints Used in Cover:118
GRASP Method!
Number cuts repeat: 0
value: 87.725702
Number Constraints Used in Cover:129
GRASP Method!
Number cuts repeat: 0
value: 87.725702
Number Constraints Used in Cover:135
GRASP Method!
Number cuts repeat: 0
value: 87.725702
Number Constraints Used in Cover:143
GRASP Method!
Number cuts repeat: 0
value: 87.725702
Number Constraints Used in Cover:148
GRASP Method!
Number cuts repeat: 0
value: 87.725702
Number Constraints Used in Cover:157
GRASP Method!
Number cuts repeat: 0
value: 87.725702
Number Constraints Used in Cover:168
GRASP Method!
Number cuts repeat: 0
value: 87.725702
Number Constraints Used in Cover:177
GRASP Method!
Number cuts repeat: 0
value: 87.725702
Number Constraints Used in Cover:181
GRASP Method!
Number cuts repeat: 0
value: 87.725702
Number Constraints Used in Cover:187
GRASP Method!
Number cuts repeat: 0
value: 87.725702
Number Constraints Used in Cover:196
GRASP Method!
Number cuts repeat: 0
value: 87.725702
Number Constraints Used in Cover:206
GRASP Method!
Number cuts repeat: 0
value: 87.725702
Number Constraints Used in Cover:209
GRASP Method!
Number cuts repeat: 0
value: 87.725702
Number Constraints Used in Cover:214
GRASP Method!
Number cuts repeat: 0
value: 87.725702
Number Constraints Used in Cover:222
GRASP Method!
Number cuts repeat: 0
value: 87.725702
Number Constraints Used in Cover:232
GRASP Method!
Number cuts repeat: 0
value: 87.725702
Number Constraints Used in Cover:242
GRASP Method!
Number cuts repeat: 0
value: 87.725702
Number Constraints Used in Cover:252
GRASP Method!
Number cuts repeat: 0
value: 87.725702
Number Constraints Used in Cover:265
GRASP Method!
Number cuts repeat: 0
value: 87.725702
Number Constraints Used in Cover:275
GRASP Method!
Number cuts repeat: 0
value: 87.725702
Number Constraints Used in Cover:284
GRASP Method!
Number cuts repeat: 0
value: 87.725702
Number Constraints Used in Cover:295
GRASP Method!
Number cuts repeat: 0
value: 87.725702
Number Constraints Used in Cover:299
GRASP Method!
Number cuts repeat: 0
value: 87.725702
Number Constraints Used in Cover:306
GRASP Method!
Number cuts repeat: 0
value: 87.725702
Number Constraints Used in Cover:309
GRASP Method!
Number cuts repeat: 0
value: 87.725702
Number Constraints Used in Cover:320
GRASP Method!
Number cuts repeat: 0
value: 87.725702
Number Constraints Used in Cover:331
GRASP Method!
Number cuts repeat: 0
value: 87.725702
Number Constraints Used in Cover:336
GRASP Method!
Number cuts repeat: 0
value: 87.725702
Number Constraints Used in Cover:341
GRASP Method!
Number cuts repeat: 0
value: 87.717518
Number Constraints Used in Cover:350
GRASP Method!
Number cuts repeat: 0
value: 87.717518
Number Constraints Used in Cover:360
GRASP Method!
Number cuts repeat: 0
value: 87.717518
Number Constraints Used in Cover:367
GRASP Method!
Number cuts repeat: 0
value: 87.717518
Number Constraints Used in Cover:379
GRASP Method!
Number cuts repeat: 0
value: 87.717518
Number Constraints Used in Cover:388
GRASP Method!
Number cuts repeat: 0
value: 87.717518
Number Constraints Used in Cover:398
GRASP Method!
Number cuts repeat: 0
value: 87.717518
Number Constraints Used in Cover:406
GRASP Method!
Number cuts repeat: 0
value: 87.717518
Number Constraints Used in Cover:419
GRASP Method!
Number cuts repeat: 0
value: 87.717518
Number Constraints Used in Cover:427
GRASP Method!
Number cuts repeat: 0
value: 87.717518
Number Constraints Used in Cover:435
GRASP Method!
Number cuts repeat: 0
value: 87.717518
Number Constraints Used in Cover:443
GRASP Method!
Number cuts repeat: 0
value: 87.717518
Number Constraints Used in Cover:459
GRASP Method!
Number cuts repeat: 0
value: 87.717518
Number Constraints Used in Cover:472
GRASP Method!
Number cuts repeat: 0
value: 87.717518
Number Constraints Used in Cover:482
GRASP Method!
Number cuts repeat: 0
value: 87.717518
Number Constraints Used in Cover:489
GRASP Method!
Number cuts repeat: 0
value: 87.717518
Number Constraints Used in Cover:498
GRASP Method!
Number cuts repeat: 0
value: 87.717518
Number Constraints Used in Cover:508
GRASP Method!
Number cuts repeat: 0
value: 87.717518
Number Constraints Used in Cover:514
GRASP Method!
Number cuts repeat: 0
value: 87.717518
Number Constraints Used in Cover:519
GRASP Method!
Number cuts repeat: 0
value: 87.717518
Number Constraints Used in Cover:532
GRASP Method!
Number cuts repeat: 0
value: 87.717518
Number Constraints Used in Cover:542
GRASP Method!
Number cuts repeat: 0
value: 87.717518
Number Constraints Used in Cover:544
GRASP Method!
Number cuts repeat: 0
value: 87.717518
Number Constraints Used in Cover:552
GRASP Method!
Number cuts repeat: 0
value: 87.717518
Number Constraints Used in Cover:556
GRASP Method!
Number cuts repeat: 0
value: 87.717518
Number Constraints Used in Cover:565
GRASP Method!
Number cuts repeat: 0
value: 87.717518
Number Constraints Used in Cover:578
GRASP Method!
Number cuts repeat: 0
value: 87.717518
Number Constraints Used in Cover:580
GRASP Method!
Number cuts repeat: 0
value: 87.717518
Number Constraints Used in Cover:590
GRASP Method!
Number cuts repeat: 0
value: 87.717518
Number Constraints Used in Cover:597
GRASP Method!
Number cuts repeat: 0
value: 87.717518
Number Constraints Used in Cover:605
GRASP Method!
Number cuts repeat: 0
value: 87.717518
Number Constraints Used in Cover:616
GRASP Method!
Number cuts repeat: 0
value: 87.717518
Number Constraints Used in Cover:632
GRASP Method!
Number cuts repeat: 0
value: 87.717518
Number Constraints Used in Cover:634
GRASP Method!
Number cuts repeat: 0
value: 87.717518
Number Constraints Used in Cover:640
GRASP Method!
Number cuts repeat: 0
value: 87.717518
Number Constraints Used in Cover:654
GRASP Method!
Number cuts repeat: 0
value: 87.717518
Number Constraints Used in Cover:655
GRASP Method!
Number cuts repeat: 0
value: 87.717518
Number Constraints Used in Cover:665
GRASP Method!
Number cuts repeat: 0
value: 87.717518
Number Constraints Used in Cover:675
GRASP Method!
Number cuts repeat: 0
value: 87.717518
Number Constraints Used in Cover:688
GRASP Method!
Number cuts repeat: 0
value: 87.717518
Number Constraints Used in Cover:696
GRASP Method!
Number cuts repeat: 0
value: 87.717518
Number Constraints Used in Cover:705
GRASP Method!
Number cuts repeat: 0
value: 87.717518
Number Constraints Used in Cover:714
GRASP Method!
Number cuts repeat: 0
value: 87.717518
Number Cuts Final: 717
